53 87 57 43 37 100 91 93 
59 14 42 15 2 73 21 40 26 
27 31 63 90 10 20 66 35 32 70 1 
5 83 45 82 47 36 19 62 88 7 8 18 6 94 96 97 13 
28 12 29 76 79 78 34 50 
72 39 67 23 75 22 41 56 74 58 
33 65 71 9 51 81 3 68 54 4 55 25 24 80 77 
95 92 98 61 16 44 38 86 85 99 84 17 60 89 
52 69 30 11 64 49 46 48 
